\ENCODING=ISO-8859-1
\Problem name: SVM

Minimize
 obj: 0.5 ksi0 + 0.5 ksi1 + 0.5 ksi2 + 0.5 ksi3 + 0.5 ksi4 + 0.5 ksi5
      + 0.5 ksi6 + 0.5 ksi7 + 0.5 ksi8 + 0.5 ksi9 + 0.5 ksi10 + 0.5 ksi11
      + 0.5 ksi12 + 0.5 ksi13 + 0.5 ksi14 + 0.5 ksi15 + 0.5 ksi16 + 0.5 ksi17
      + 0.5 ksi18 + 0.5 ksi19 + 0.5 ksi20 + 0.5 ksi21 + 0.5 ksi22 + 0.5 ksi23
      + 0.5 ksi24 + 0.5 ksi25 + 0.5 ksi26 + 0.5 ksi27 + 0.5 ksi28 + 0.5 ksi29
      + 0.5 ksi30 + 0.5 ksi31 + 0.5 ksi32 + 0.5 ksi33 + 0.5 ksi34 + 0.5 ksi35
      + 0.5 ksi36 + 0.5 ksi37 + 0.5 ksi38 + 0.5 ksi39 + 0.5 ksi40 + 0.5 ksi41
      + 0.5 ksi42 + 0.5 ksi43 + 0.5 ksi44 + 0.5 ksi45 + 0.5 ksi46 + 0.5 ksi47
      + 0.5 ksi48 + 0.5 ksi49 + 0.5 ksi50 + 0.5 ksi51 + 0.5 ksi52 + 0.5 ksi53
      + 0.5 ksi54 + 0.5 ksi55 + 0.5 ksi56 + 0.5 ksi57 + 0.5 ksi58 + 0.5 ksi59
      + 0.5 ksi60 + 0.5 ksi61 + 0.5 ksi62 + 0.5 ksi63 + 0.5 ksi64 + 0.5 ksi65
      + 0.5 ksi66 + 0.5 ksi67 + 0.5 ksi68 + 0.5 ksi69 + 0.5 ksi70 + 0.5 ksi71
      + 0.5 ksi72 + 0.5 ksi73 + 0.5 ksi74 + 0.5 ksi75 + 0.5 ksi76 + 0.5 ksi77
      + 0.5 ksi78 + 0.5 ksi79 + 0.5 ksi80 + 0.5 ksi81 + 0.5 ksi82 + 0.5 ksi83
      + 0.5 ksi84 + 0.5 ksi85 + 0.5 ksi86 + 0.5 ksi87 + 0.5 ksi88 + 0.5 ksi89
      + 0.5 ksi90 + 0.5 ksi91 + 0.5 ksi92 + 0.5 ksi93 + 0.5 ksi94 + 0.5 ksi95
      + 0.5 ksi96 + 0.5 ksi97 + 0.5 ksi98 + 0.5 ksi99 + 0.5 ksi100 + 0.5 ksi101
      + 0.5 ksi102 + 0.5 ksi103 + 0.5 ksi104 + 0.5 ksi105 + 0.5 ksi106
      + 0.5 ksi107 + 0.5 ksi108 + 0.5 ksi109 + 0.5 ksi110 + 0.5 ksi111
      + 0.5 ksi112 + 0.5 ksi113 + 0.5 ksi114 + 0.5 ksi115 + 0.5 ksi116
      + 0.5 ksi117 + 0.5 ksi118 + 0.5 ksi119 + 0.5 ksi120 + 0.5 ksi121
      + 0.5 ksi122 + 0.5 ksi123 + 0.5 ksi124 + 0.5 ksi125 + 0.5 ksi126
      + 0.5 ksi127 + 0.5 ksi128 + 0.5 ksi129 + 0.5 ksi130 + 0.5 ksi131
      + 0.5 ksi132 + 0.5 ksi133 + 0.5 ksi134 + 0.5 ksi135 + 0.5 ksi136
      + 0.5 ksi137 + 0.5 ksi138 + 0.5 ksi139 + 0.5 ksi140 + 0.5 ksi141 + z0
      + z1 + z2 + z3 + z4 + z5 + z6 + z7 + z8 + z9 + z10 + z11 + z12 + z13
      + z14 + z15 + z16 + z17 + z18 + z19 + z20 + z21 + z22 + z23 + z24 + z25
      + z26 + z27 + z28 + z29 + z30 + z31 + z32 + z33 + z34 + z35 + z36 + z37
      + z38 + z39 + z40 + z41 + z42 + z43 + z44 + z45 + z46 + z47 + z48 + z49
      + z50 + z51 + z52 + z53 + z54 + z55 + z56 + z57 + z58 + z59 + z60 + z61
      + z62 + z63 + z64 + z65 + z66 + z67 + z68 + z69 + z70 + z71 + z72 + z73
      + z74 + z75 + z76 + z77 + z78 + z79 + z80 + z81 + z82 + z83 + z84 + z85
      + z86 + z87 + z88 + z89 + z90 + z91 + z92 + z93 + z94 + z95 + z96 + z97
      + z98 + z99 + z100 + z101 + z102 + z103 + z104 + z105 + z106 + z107
      + z108 + z109 + z110 + z111 + z112 + z113 + z114 + z115 + z116 + z117
      + z118 + z119 + z120 + z121 + z122 + z123 + z124 + z125 + z126 + z127
      + z128 + z129 + z130 + z131 + z132 + z133 + z134 + z135 + z136 + z137
      + z138 + z139 + z140 + z141 + [ w0 ^2 + w1 ^2 + w2 ^2 + w3 ^2 + w4 ^2
      + w5 ^2 + w6 ^2 + w7 ^2 ] / 2
Subject To
 c1:   - 6 w0 - 148 w1 - 72 w2 - 35 w3 - 33.6 w5 - 0.627 w6 - 50 w7 - b + ksi0
       + 10000 z0 >= 1
 c2:   w0 + 85 w1 + 66 w2 + 29 w3 + 26.6 w5 + 0.351 w6 + 31 w7 + b + ksi1
       + 10000 z1 >= 1
 c3:   - 8 w0 - 183 w1 - 64 w2 - 23.3 w5 - 0.672 w6 - 32 w7 - b + ksi2
       + 10000 z2 >= 1
 c4:   w0 + 89 w1 + 66 w2 + 23 w3 + 94 w4 + 28.1 w5 + 0.167 w6 + 21 w7 + b
       + ksi3 + 10000 z3 >= 1
 c5:   - 137 w1 - 40 w2 - 35 w3 - 168 w4 - 43.1 w5 - 2.288 w6 - 33 w7 - b
       + ksi4 + 10000 z4 >= 1
 c6:   5 w0 + 116 w1 + 74 w2 + 25.6 w5 + 0.201 w6 + 30 w7 + b + ksi5 + 10000 z5
       >= 1
 c7:   - 3 w0 - 78 w1 - 50 w2 - 32 w3 - 88 w4 - 31 w5 - 0.248 w6 - 26 w7 - b
       + ksi6 + 10000 z6 >= 1
 c8:   10 w0 + 115 w1 + 35.3 w5 + 0.134 w6 + 29 w7 + b + ksi7 + 10000 z7 >= 1
 c9:   - 2 w0 - 197 w1 - 70 w2 - 45 w3 - 543 w4 - 30.5 w5 - 0.158 w6 - 53 w7
       - b + ksi8 + 10000 z8 >= 1
 c10:  - 8 w0 - 125 w1 - 96 w2 - 0.232 w6 - 54 w7 - b + ksi9 + 10000 z9 >= 1
 c11:  4 w0 + 110 w1 + 92 w2 + 37.6 w5 + 0.191 w6 + 30 w7 + b + ksi10
       + 10000 z10 >= 1
 c12:  - 10 w0 - 168 w1 - 74 w2 - 38 w5 - 0.537 w6 - 34 w7 - b + ksi11
       + 10000 z11 >= 1
 c13:  10 w0 + 139 w1 + 80 w2 + 27.1 w5 + 1.441 w6 + 57 w7 + b + ksi12
       + 10000 z12 >= 1
 c14:  - w0 - 189 w1 - 60 w2 - 23 w3 - 846 w4 - 30.1 w5 - 0.398 w6 - 59 w7 - b
       + ksi13 + 10000 z13 >= 1
 c15:  - 5 w0 - 166 w1 - 72 w2 - 19 w3 - 175 w4 - 25.8 w5 - 0.587 w6 - 51 w7
       - b + ksi14 + 10000 z14 >= 1
 c16:  - 7 w0 - 100 w1 - 30 w5 - 0.484 w6 - 32 w7 - b + ksi15 + 10000 z15 >= 1
 c17:  - 118 w1 - 84 w2 - 47 w3 - 230 w4 - 45.8 w5 - 0.551 w6 - 31 w7 - b
       + ksi16 + 10000 z16 >= 1
 c18:  - 7 w0 - 107 w1 - 74 w2 - 29.6 w5 - 0.254 w6 - 31 w7 - b + ksi17
       + 10000 z17 >= 1
 c19:  w0 + 103 w1 + 30 w2 + 38 w3 + 83 w4 + 43.3 w5 + 0.183 w6 + 33 w7 + b
       + ksi18 + 10000 z18 >= 1
 c20:  - w0 - 115 w1 - 70 w2 - 30 w3 - 96 w4 - 34.6 w5 - 0.529 w6 - 32 w7 - b
       + ksi19 + 10000 z19 >= 1
 c21:  3 w0 + 126 w1 + 88 w2 + 41 w3 + 235 w4 + 39.3 w5 + 0.704 w6 + 27 w7 + b
       + ksi20 + 10000 z20 >= 1
 c22:  8 w0 + 99 w1 + 84 w2 + 35.4 w5 + 0.388 w6 + 50 w7 + b + ksi21
       + 10000 z21 >= 1
 c23:  - 7 w0 - 196 w1 - 90 w2 - 39.8 w5 - 0.451 w6 - 41 w7 - b + ksi22
       + 10000 z22 >= 1
 c24:  - 9 w0 - 119 w1 - 80 w2 - 35 w3 - 29 w5 - 0.263 w6 - 29 w7 - b + ksi23
       + 10000 z23 >= 1
 c25:  - 11 w0 - 143 w1 - 94 w2 - 33 w3 - 146 w4 - 36.6 w5 - 0.254 w6 - 51 w7
       - b + ksi24 + 10000 z24 >= 1
 c26:  - 10 w0 - 125 w1 - 70 w2 - 26 w3 - 115 w4 - 31.1 w5 - 0.205 w6 - 41 w7
       - b + ksi25 + 10000 z25 >= 1
 c27:  - 7 w0 - 147 w1 - 76 w2 - 39.4 w5 - 0.257 w6 - 43 w7 - b + ksi26
       + 10000 z26 >= 1
 c28:  w0 + 97 w1 + 66 w2 + 15 w3 + 140 w4 + 23.2 w5 + 0.487 w6 + 22 w7 + b
       + ksi27 + 10000 z27 >= 1
 c29:  13 w0 + 145 w1 + 82 w2 + 19 w3 + 110 w4 + 22.2 w5 + 0.245 w6 + 57 w7 + b
       + ksi28 + 10000 z28 >= 1
 c30:  5 w0 + 117 w1 + 92 w2 + 34.1 w5 + 0.337 w6 + 38 w7 + b + ksi29
       + 10000 z29 >= 1
 c31:  5 w0 + 109 w1 + 75 w2 + 26 w3 + 36 w5 + 0.546 w6 + 60 w7 + b + ksi30
       + 10000 z30 >= 1
 c32:  - 3 w0 - 158 w1 - 76 w2 - 36 w3 - 245 w4 - 31.6 w5 - 0.851 w6 - 28 w7
       - b + ksi31 + 10000 z31 >= 1
 c33:  3 w0 + 88 w1 + 58 w2 + 11 w3 + 54 w4 + 24.8 w5 + 0.267 w6 + 22 w7 + b
       + ksi32 + 10000 z32 >= 1
 c34:  6 w0 + 92 w1 + 92 w2 + 19.9 w5 + 0.188 w6 + 28 w7 + b + ksi33
       + 10000 z33 >= 1
 c35:  10 w0 + 122 w1 + 78 w2 + 31 w3 + 27.6 w5 + 0.512 w6 + 45 w7 + b + ksi34
       + 10000 z34 >= 1
 c36:  4 w0 + 103 w1 + 60 w2 + 33 w3 + 192 w4 + 24 w5 + 0.966 w6 + 33 w7 + b
       + ksi35 + 10000 z35 >= 1
 c37:  11 w0 + 138 w1 + 76 w2 + 33.2 w5 + 0.42 w6 + 35 w7 + b + ksi36
       + 10000 z36 >= 1
 c38:  - 9 w0 - 102 w1 - 76 w2 - 37 w3 - 32.9 w5 - 0.665 w6 - 46 w7 - b + ksi37
       + 10000 z37 >= 1
 c39:  - 2 w0 - 90 w1 - 68 w2 - 42 w3 - 38.2 w5 - 0.503 w6 - 27 w7 - b + ksi38
       + 10000 z38 >= 1
 c40:  - 4 w0 - 111 w1 - 72 w2 - 47 w3 - 207 w4 - 37.1 w5 - 1.39 w6 - 56 w7 - b
       + ksi39 + 10000 z39 >= 1
 c41:  3 w0 + 180 w1 + 64 w2 + 25 w3 + 70 w4 + 34 w5 + 0.271 w6 + 26 w7 + b
       + ksi40 + 10000 z40 >= 1
 c42:  7 w0 + 133 w1 + 84 w2 + 40.2 w5 + 0.696 w6 + 37 w7 + b + ksi41
       + 10000 z41 >= 1
 c43:  7 w0 + 106 w1 + 92 w2 + 18 w3 + 22.7 w5 + 0.235 w6 + 48 w7 + b + ksi42
       + 10000 z42 >= 1
 c44:  - 9 w0 - 171 w1 - 110 w2 - 24 w3 - 240 w4 - 45.4 w5 - 0.721 w6 - 54 w7
       - b + ksi43 + 10000 z43 >= 1
 c45:  7 w0 + 159 w1 + 64 w2 + 27.4 w5 + 0.294 w6 + 40 w7 + b + ksi44
       + 10000 z44 >= 1
 c46:  - 180 w1 - 66 w2 - 39 w3 - 42 w5 - 1.893 w6 - 25 w7 - b + ksi45
       + 10000 z45 >= 1
 c47:  w0 + 146 w1 + 56 w2 + 29.7 w5 + 0.564 w6 + 29 w7 + b + ksi46 + 10000 z46
       >= 1
 c48:  2 w0 + 71 w1 + 70 w2 + 27 w3 + 28 w5 + 0.586 w6 + 22 w7 + b + ksi47
       + 10000 z47 >= 1
 c49:  - 7 w0 - 103 w1 - 66 w2 - 32 w3 - 39.1 w5 - 0.344 w6 - 31 w7 - b + ksi48
       + 10000 z48 >= 1
 c50:  7 w0 + 105 w1 + 0.305 w6 + 24 w7 + b + ksi49 + 10000 z49 >= 1
 c51:  w0 + 103 w1 + 80 w2 + 11 w3 + 82 w4 + 19.4 w5 + 0.491 w6 + 22 w7 + b
       + ksi50 + 10000 z50 >= 1
 c52:  w0 + 101 w1 + 50 w2 + 15 w3 + 36 w4 + 24.2 w5 + 0.526 w6 + 26 w7 + b
       + ksi51 + 10000 z51 >= 1
 c53:  5 w0 + 88 w1 + 66 w2 + 21 w3 + 23 w4 + 24.4 w5 + 0.342 w6 + 30 w7 + b
       + ksi52 + 10000 z52 >= 1
 c54:  - 8 w0 - 176 w1 - 90 w2 - 34 w3 - 300 w4 - 33.7 w5 - 0.467 w6 - 58 w7
       - b + ksi53 + 10000 z53 >= 1
 c55:  7 w0 + 150 w1 + 66 w2 + 42 w3 + 342 w4 + 34.7 w5 + 0.718 w6 + 42 w7 + b
       + ksi54 + 10000 z54 >= 1
 c56:  w0 + 73 w1 + 50 w2 + 10 w3 + 23 w5 + 0.248 w6 + 21 w7 + b + ksi55
       + 10000 z55 >= 1
 c57:  - 7 w0 - 187 w1 - 68 w2 - 39 w3 - 304 w4 - 37.7 w5 - 0.254 w6 - 41 w7
       - b + ksi56 + 10000 z56 >= 1
 c58:  100 w1 + 88 w2 + 60 w3 + 110 w4 + 46.8 w5 + 0.962 w6 + 31 w7 + b + ksi57
       + 10000 z57 >= 1
 c59:  146 w1 + 82 w2 + 40.5 w5 + 1.781 w6 + 44 w7 + b + ksi58 + 10000 z58 >= 1
 c60:  105 w1 + 64 w2 + 41 w3 + 142 w4 + 41.5 w5 + 0.173 w6 + 22 w7 + b + ksi59
       + 10000 z59 >= 1
 c61:  2 w0 + 84 w1 + 0.304 w6 + 21 w7 + b + ksi60 + 10000 z60 >= 1
 c62:  - 8 w0 - 133 w1 - 72 w2 - 32.9 w5 - 0.27 w6 - 39 w7 - b + ksi61
       + 10000 z61 >= 1
 c63:  5 w0 + 44 w1 + 62 w2 + 25 w5 + 0.587 w6 + 36 w7 + b + ksi62 + 10000 z62
       >= 1
 c64:  2 w0 + 141 w1 + 58 w2 + 34 w3 + 128 w4 + 25.4 w5 + 0.699 w6 + 24 w7 + b
       + ksi63 + 10000 z63 >= 1
 c65:  - 7 w0 - 114 w1 - 66 w2 - 32.8 w5 - 0.258 w6 - 42 w7 - b + ksi64
       + 10000 z64 >= 1
 c66:  5 w0 + 99 w1 + 74 w2 + 27 w3 + 29 w5 + 0.203 w6 + 32 w7 + b + ksi65
       + 10000 z65 >= 1
 c67:  - 109 w1 - 88 w2 - 30 w3 - 32.5 w5 - 0.855 w6 - 38 w7 - b + ksi66
       + 10000 z66 >= 1
 c68:  2 w0 + 109 w1 + 92 w2 + 42.7 w5 + 0.845 w6 + 54 w7 + b + ksi67
       + 10000 z67 >= 1
 c69:  w0 + 95 w1 + 66 w2 + 13 w3 + 38 w4 + 19.6 w5 + 0.334 w6 + 25 w7 + b
       + ksi68 + 10000 z68 >= 1
 c70:  4 w0 + 146 w1 + 85 w2 + 27 w3 + 100 w4 + 28.9 w5 + 0.189 w6 + 27 w7 + b
       + ksi69 + 10000 z69 >= 1
 c71:  - 2 w0 - 100 w1 - 66 w2 - 20 w3 - 90 w4 - 32.9 w5 - 0.867 w6 - 28 w7 - b
       + ksi70 + 10000 z70 >= 1
 c72:  5 w0 + 139 w1 + 64 w2 + 35 w3 + 140 w4 + 28.6 w5 + 0.411 w6 + 26 w7 + b
       + ksi71 + 10000 z71 >= 1
 c73:  - 13 w0 - 126 w1 - 90 w2 - 43.4 w5 - 0.583 w6 - 42 w7 - b + ksi72
       + 10000 z72 >= 1
 c74:  4 w0 + 129 w1 + 86 w2 + 20 w3 + 270 w4 + 35.1 w5 + 0.231 w6 + 23 w7 + b
       + ksi73 + 10000 z73 >= 1
 c75:  w0 + 79 w1 + 75 w2 + 30 w3 + 32 w5 + 0.396 w6 + 22 w7 + b + ksi74
       + 10000 z74 >= 1
 c76:  w0 + 48 w2 + 20 w3 + 24.7 w5 + 0.14 w6 + 22 w7 + b + ksi75 + 10000 z75
       >= 1
 c77:  7 w0 + 62 w1 + 78 w2 + 32.6 w5 + 0.391 w6 + 41 w7 + b + ksi76
       + 10000 z76 >= 1
 c78:  5 w0 + 95 w1 + 72 w2 + 33 w3 + 37.7 w5 + 0.37 w6 + 27 w7 + b + ksi77
       + 10000 z77 >= 1
 c79:  - 131 w1 - 43.2 w5 - 0.27 w6 - 26 w7 - b + ksi78 + 10000 z78 >= 1
 c80:  2 w0 + 112 w1 + 66 w2 + 22 w3 + 25 w5 + 0.307 w6 + 24 w7 + b + ksi79
       + 10000 z79 >= 1
 c81:  3 w0 + 113 w1 + 44 w2 + 13 w3 + 22.4 w5 + 0.14 w6 + 22 w7 + b + ksi80
       + 10000 z80 >= 1
 c82:  2 w0 + 74 w1 + 0.102 w6 + 22 w7 + b + ksi81 + 10000 z81 >= 1
 c83:  7 w0 + 83 w1 + 78 w2 + 26 w3 + 71 w4 + 29.3 w5 + 0.767 w6 + 36 w7 + b
       + ksi82 + 10000 z82 >= 1
 c84:  101 w1 + 65 w2 + 28 w3 + 24.6 w5 + 0.237 w6 + 22 w7 + b + ksi83
       + 10000 z83 >= 1
 c85:  - 5 w0 - 137 w1 - 108 w2 - 48.8 w5 - 0.227 w6 - 37 w7 - b + ksi84
       + 10000 z84 >= 1
 c86:  2 w0 + 110 w1 + 74 w2 + 29 w3 + 125 w4 + 32.4 w5 + 0.698 w6 + 27 w7 + b
       + ksi85 + 10000 z85 >= 1
 c87:  13 w0 + 106 w1 + 72 w2 + 54 w3 + 36.6 w5 + 0.178 w6 + 45 w7 + b + ksi86
       + 10000 z86 >= 1
 c88:  2 w0 + 100 w1 + 68 w2 + 25 w3 + 71 w4 + 38.5 w5 + 0.324 w6 + 26 w7 + b
       + ksi87 + 10000 z87 >= 1
 c89:  - 15 w0 - 136 w1 - 70 w2 - 32 w3 - 110 w4 - 37.1 w5 - 0.153 w6 - 43 w7
       - b + ksi88 + 10000 z88 >= 1
 c90:  w0 + 107 w1 + 68 w2 + 19 w3 + 26.5 w5 + 0.165 w6 + 24 w7 + b + ksi89
       + 10000 z89 >= 1
 c91:  w0 + 80 w1 + 55 w2 + 19.1 w5 + 0.258 w6 + 21 w7 + b + ksi90 + 10000 z90
       >= 1
 c92:  4 w0 + 123 w1 + 80 w2 + 15 w3 + 176 w4 + 32 w5 + 0.443 w6 + 34 w7 + b
       + ksi91 + 10000 z91 >= 1
 c93:  7 w0 + 81 w1 + 78 w2 + 40 w3 + 48 w4 + 46.7 w5 + 0.261 w6 + 42 w7 + b
       + ksi92 + 10000 z92 >= 1
 c94:  - 4 w0 - 134 w1 - 72 w2 - 23.8 w5 - 0.277 w6 - 60 w7 - b + ksi93
       + 10000 z93 >= 1
 c95:  2 w0 + 142 w1 + 82 w2 + 18 w3 + 64 w4 + 24.7 w5 + 0.761 w6 + 21 w7 + b
       + ksi94 + 10000 z94 >= 1
 c96:  6 w0 + 144 w1 + 72 w2 + 27 w3 + 228 w4 + 33.9 w5 + 0.255 w6 + 40 w7 + b
       + ksi95 + 10000 z95 >= 1
 c97:  2 w0 + 92 w1 + 62 w2 + 28 w3 + 31.6 w5 + 0.13 w6 + 24 w7 + b + ksi96
       + 10000 z96 >= 1
 c98:  w0 + 71 w1 + 48 w2 + 18 w3 + 76 w4 + 20.4 w5 + 0.323 w6 + 22 w7 + b
       + ksi97 + 10000 z97 >= 1
 c99:  6 w0 + 93 w1 + 50 w2 + 30 w3 + 64 w4 + 28.7 w5 + 0.356 w6 + 23 w7 + b
       + ksi98 + 10000 z98 >= 1
 c100: - w0 - 122 w1 - 90 w2 - 51 w3 - 220 w4 - 49.7 w5 - 0.325 w6 - 31 w7 - b
       + ksi99 + 10000 z99 >= 1
 c101: - w0 - 163 w1 - 72 w2 - 39 w5 - 1.222 w6 - 33 w7 - b + ksi100
       + 10000 z100 >= 1
 c102: w0 + 151 w1 + 60 w2 + 26.1 w5 + 0.179 w6 + 22 w7 + b + ksi101
       + 10000 z101 >= 1
 c103: 125 w1 + 96 w2 + 22.5 w5 + 0.262 w6 + 21 w7 + b + ksi102 + 10000 z102
       >= 1
 c104: w0 + 81 w1 + 72 w2 + 18 w3 + 40 w4 + 26.6 w5 + 0.283 w6 + 24 w7 + b
       + ksi103 + 10000 z103 >= 1
 c105: 2 w0 + 85 w1 + 65 w2 + 39.6 w5 + 0.93 w6 + 27 w7 + b + ksi104
       + 10000 z104 >= 1
 c106: w0 + 126 w1 + 56 w2 + 29 w3 + 152 w4 + 28.7 w5 + 0.801 w6 + 21 w7 + b
       + ksi105 + 10000 z105 >= 1
 c107: w0 + 96 w1 + 122 w2 + 22.4 w5 + 0.207 w6 + 27 w7 + b + ksi106
       + 10000 z106 >= 1
 c108: 4 w0 + 144 w1 + 58 w2 + 28 w3 + 140 w4 + 29.5 w5 + 0.287 w6 + 37 w7 + b
       + ksi107 + 10000 z107 >= 1
 c109: 3 w0 + 83 w1 + 58 w2 + 31 w3 + 18 w4 + 34.3 w5 + 0.336 w6 + 25 w7 + b
       + ksi108 + 10000 z108 >= 1
 c110: - 95 w1 - 85 w2 - 25 w3 - 36 w4 - 37.4 w5 - 0.247 w6 - 24 w7 - b
       + ksi109 + 10000 z109 >= 1
 c111: - 3 w0 - 171 w1 - 72 w2 - 33 w3 - 135 w4 - 33.3 w5 - 0.199 w6 - 24 w7
       - b + ksi110 + 10000 z110 >= 1
 c112: - 8 w0 - 155 w1 - 62 w2 - 26 w3 - 495 w4 - 34 w5 - 0.543 w6 - 46 w7 - b
       + ksi111 + 10000 z111 >= 1
 c113: w0 + 89 w1 + 76 w2 + 34 w3 + 37 w4 + 31.2 w5 + 0.192 w6 + 23 w7 + b
       + ksi112 + 10000 z112 >= 1
 c114: 4 w0 + 76 w1 + 62 w2 + 34 w5 + 0.391 w6 + 25 w7 + b + ksi113
       + 10000 z113 >= 1
 c115: - 7 w0 - 160 w1 - 54 w2 - 32 w3 - 175 w4 - 30.5 w5 - 0.588 w6 - 39 w7
       - b + ksi114 + 10000 z114 >= 1
 c116: - 4 w0 - 146 w1 - 92 w2 - 31.2 w5 - 0.539 w6 - 61 w7 - b + ksi115
       + 10000 z115 >= 1
 c117: - 5 w0 - 124 w1 - 74 w2 - 34 w5 - 0.22 w6 - 38 w7 - b + ksi116
       + 10000 z116 >= 1
 c118: 5 w0 + 78 w1 + 48 w2 + 33.7 w5 + 0.654 w6 + 25 w7 + b + ksi117
       + 10000 z117 >= 1
 c119: 4 w0 + 97 w1 + 60 w2 + 23 w3 + 28.2 w5 + 0.443 w6 + 22 w7 + b + ksi118
       + 10000 z118 >= 1
 c120: 4 w0 + 99 w1 + 76 w2 + 15 w3 + 51 w4 + 23.2 w5 + 0.223 w6 + 21 w7 + b
       + ksi119 + 10000 z119 >= 1
 c121: - 162 w1 - 76 w2 - 56 w3 - 100 w4 - 53.2 w5 - 0.759 w6 - 25 w7 - b
       + ksi120 + 10000 z120 >= 1
 c122: 6 w0 + 111 w1 + 64 w2 + 39 w3 + 34.2 w5 + 0.26 w6 + 24 w7 + b + ksi121
       + 10000 z121 >= 1
 c123: 2 w0 + 107 w1 + 74 w2 + 30 w3 + 100 w4 + 33.6 w5 + 0.404 w6 + 23 w7 + b
       + ksi122 + 10000 z122 >= 1
 c124: 5 w0 + 132 w1 + 80 w2 + 26.8 w5 + 0.186 w6 + 69 w7 + b + ksi123
       + 10000 z123 >= 1
 c125: - 113 w1 - 76 w2 - 33.3 w5 - 0.278 w6 - 23 w7 - b + ksi124 + 10000 z124
       >= 1
 c126: - w0 - 88 w1 - 30 w2 - 42 w3 - 99 w4 - 55 w5 - 0.496 w6 - 26 w7 - b
       + ksi125 + 10000 z125 >= 1
 c127: 3 w0 + 120 w1 + 70 w2 + 30 w3 + 135 w4 + 42.9 w5 + 0.452 w6 + 30 w7 + b
       + ksi126 + 10000 z126 >= 1
 c128: w0 + 118 w1 + 58 w2 + 36 w3 + 94 w4 + 33.3 w5 + 0.261 w6 + 23 w7 + b
       + ksi127 + 10000 z127 >= 1
 c129: - w0 - 117 w1 - 88 w2 - 24 w3 - 145 w4 - 34.5 w5 - 0.403 w6 - 40 w7 - b
       + ksi128 + 10000 z128 >= 1
 c130: - 105 w1 - 84 w2 - 27.9 w5 - 0.741 w6 - 62 w7 - b + ksi129 + 10000 z129
       >= 1
 c131: - 4 w0 - 173 w1 - 70 w2 - 14 w3 - 168 w4 - 29.7 w5 - 0.361 w6 - 33 w7
       - b + ksi130 + 10000 z130 >= 1
 c132: - 9 w0 - 122 w1 - 56 w2 - 33.3 w5 - 1.114 w6 - 33 w7 - b + ksi131
       + 10000 z131 >= 1
 c133: - 3 w0 - 170 w1 - 64 w2 - 37 w3 - 225 w4 - 34.5 w5 - 0.356 w6 - 30 w7
       - b + ksi132 + 10000 z132 >= 1
 c134: 8 w0 + 84 w1 + 74 w2 + 31 w3 + 38.3 w5 + 0.457 w6 + 39 w7 + b + ksi133
       + 10000 z133 >= 1
 c135: 2 w0 + 96 w1 + 68 w2 + 13 w3 + 49 w4 + 21.1 w5 + 0.647 w6 + 26 w7 + b
       + ksi134 + 10000 z134 >= 1
 c136: 2 w0 + 125 w1 + 60 w2 + 20 w3 + 140 w4 + 33.8 w5 + 0.088 w6 + 31 w7 + b
       + ksi135 + 10000 z135 >= 1
 c137: 100 w1 + 70 w2 + 26 w3 + 50 w4 + 30.8 w5 + 0.597 w6 + 21 w7 + b + ksi136
       + 10000 z136 >= 1
 c138: 93 w1 + 60 w2 + 25 w3 + 92 w4 + 28.7 w5 + 0.532 w6 + 22 w7 + b + ksi137
       + 10000 z137 >= 1
 c139: 129 w1 + 80 w2 + 31.2 w5 + 0.703 w6 + 29 w7 + b + ksi138 + 10000 z138
       >= 1
 c140: 5 w0 + 105 w1 + 72 w2 + 29 w3 + 325 w4 + 36.9 w5 + 0.159 w6 + 28 w7 + b
       + ksi139 + 10000 z139 >= 1
 c141: 3 w0 + 128 w1 + 78 w2 + 21.1 w5 + 0.268 w6 + 55 w7 + b + ksi140
       + 10000 z140 >= 1
 c142: 5 w0 + 106 w1 + 82 w2 + 30 w3 + 39.5 w5 + 0.286 w6 + 38 w7 + b + ksi141
       + 10000 z141 >= 1
Bounds
-1 <= b <= 1
 0 <= ksi0 <= 2
 0 <= ksi1 <= 2
 0 <= ksi2 <= 2
 0 <= ksi3 <= 2
 0 <= ksi4 <= 2
 0 <= ksi5 <= 2
 0 <= ksi6 <= 2
 0 <= ksi7 <= 2
 0 <= ksi8 <= 2
 0 <= ksi9 <= 2
 0 <= ksi10 <= 2
 0 <= ksi11 <= 2
 0 <= ksi12 <= 2
 0 <= ksi13 <= 2
 0 <= ksi14 <= 2
 0 <= ksi15 <= 2
 0 <= ksi16 <= 2
 0 <= ksi17 <= 2
 0 <= ksi18 <= 2
 0 <= ksi19 <= 2
 0 <= ksi20 <= 2
 0 <= ksi21 <= 2
 0 <= ksi22 <= 2
 0 <= ksi23 <= 2
 0 <= ksi24 <= 2
 0 <= ksi25 <= 2
 0 <= ksi26 <= 2
 0 <= ksi27 <= 2
 0 <= ksi28 <= 2
 0 <= ksi29 <= 2
 0 <= ksi30 <= 2
 0 <= ksi31 <= 2
 0 <= ksi32 <= 2
 0 <= ksi33 <= 2
 0 <= ksi34 <= 2
 0 <= ksi35 <= 2
 0 <= ksi36 <= 2
 0 <= ksi37 <= 2
 0 <= ksi38 <= 2
 0 <= ksi39 <= 2
 0 <= ksi40 <= 2
 0 <= ksi41 <= 2
 0 <= ksi42 <= 2
 0 <= ksi43 <= 2
 0 <= ksi44 <= 2
 0 <= ksi45 <= 2
 0 <= ksi46 <= 2
 0 <= ksi47 <= 2
 0 <= ksi48 <= 2
 0 <= ksi49 <= 2
 0 <= ksi50 <= 2
 0 <= ksi51 <= 2
 0 <= ksi52 <= 2
 0 <= ksi53 <= 2
 0 <= ksi54 <= 2
 0 <= ksi55 <= 2
 0 <= ksi56 <= 2
 0 <= ksi57 <= 2
 0 <= ksi58 <= 2
 0 <= ksi59 <= 2
 0 <= ksi60 <= 2
 0 <= ksi61 <= 2
 0 <= ksi62 <= 2
 0 <= ksi63 <= 2
 0 <= ksi64 <= 2
 0 <= ksi65 <= 2
 0 <= ksi66 <= 2
 0 <= ksi67 <= 2
 0 <= ksi68 <= 2
 0 <= ksi69 <= 2
 0 <= ksi70 <= 2
 0 <= ksi71 <= 2
 0 <= ksi72 <= 2
 0 <= ksi73 <= 2
 0 <= ksi74 <= 2
 0 <= ksi75 <= 2
 0 <= ksi76 <= 2
 0 <= ksi77 <= 2
 0 <= ksi78 <= 2
 0 <= ksi79 <= 2
 0 <= ksi80 <= 2
 0 <= ksi81 <= 2
 0 <= ksi82 <= 2
 0 <= ksi83 <= 2
 0 <= ksi84 <= 2
 0 <= ksi85 <= 2
 0 <= ksi86 <= 2
 0 <= ksi87 <= 2
 0 <= ksi88 <= 2
 0 <= ksi89 <= 2
 0 <= ksi90 <= 2
 0 <= ksi91 <= 2
 0 <= ksi92 <= 2
 0 <= ksi93 <= 2
 0 <= ksi94 <= 2
 0 <= ksi95 <= 2
 0 <= ksi96 <= 2
 0 <= ksi97 <= 2
 0 <= ksi98 <= 2
 0 <= ksi99 <= 2
 0 <= ksi100 <= 2
 0 <= ksi101 <= 2
 0 <= ksi102 <= 2
 0 <= ksi103 <= 2
 0 <= ksi104 <= 2
 0 <= ksi105 <= 2
 0 <= ksi106 <= 2
 0 <= ksi107 <= 2
 0 <= ksi108 <= 2
 0 <= ksi109 <= 2
 0 <= ksi110 <= 2
 0 <= ksi111 <= 2
 0 <= ksi112 <= 2
 0 <= ksi113 <= 2
 0 <= ksi114 <= 2
 0 <= ksi115 <= 2
 0 <= ksi116 <= 2
 0 <= ksi117 <= 2
 0 <= ksi118 <= 2
 0 <= ksi119 <= 2
 0 <= ksi120 <= 2
 0 <= ksi121 <= 2
 0 <= ksi122 <= 2
 0 <= ksi123 <= 2
 0 <= ksi124 <= 2
 0 <= ksi125 <= 2
 0 <= ksi126 <= 2
 0 <= ksi127 <= 2
 0 <= ksi128 <= 2
 0 <= ksi129 <= 2
 0 <= ksi130 <= 2
 0 <= ksi131 <= 2
 0 <= ksi132 <= 2
 0 <= ksi133 <= 2
 0 <= ksi134 <= 2
 0 <= ksi135 <= 2
 0 <= ksi136 <= 2
 0 <= ksi137 <= 2
 0 <= ksi138 <= 2
 0 <= ksi139 <= 2
 0 <= ksi140 <= 2
 0 <= ksi141 <= 2
 0 <= z0 <= 1
 0 <= z1 <= 1
 0 <= z2 <= 1
 0 <= z3 <= 1
 0 <= z4 <= 1
 0 <= z5 <= 1
 0 <= z6 <= 1
 0 <= z7 <= 1
 0 <= z8 <= 1
 0 <= z9 <= 1
 0 <= z10 <= 1
 0 <= z11 <= 1
 0 <= z12 <= 1
 0 <= z13 <= 1
 0 <= z14 <= 1
 0 <= z15 <= 1
 0 <= z16 <= 1
 0 <= z17 <= 1
 0 <= z18 <= 1
 0 <= z19 <= 1
 0 <= z20 <= 1
 0 <= z21 <= 1
 0 <= z22 <= 1
 0 <= z23 <= 1
 0 <= z24 <= 1
 0 <= z25 <= 1
 0 <= z26 <= 1
 0 <= z27 <= 1
 0 <= z28 <= 1
 0 <= z29 <= 1
 0 <= z30 <= 1
 0 <= z31 <= 1
 0 <= z32 <= 1
 0 <= z33 <= 1
 0 <= z34 <= 1
 0 <= z35 <= 1
 0 <= z36 <= 1
 0 <= z37 <= 1
 0 <= z38 <= 1
 0 <= z39 <= 1
 0 <= z40 <= 1
 0 <= z41 <= 1
 0 <= z42 <= 1
 0 <= z43 <= 1
 0 <= z44 <= 1
 0 <= z45 <= 1
 0 <= z46 <= 1
 0 <= z47 <= 1
 0 <= z48 <= 1
 0 <= z49 <= 1
 0 <= z50 <= 1
 0 <= z51 <= 1
 0 <= z52 <= 1
 0 <= z53 <= 1
 0 <= z54 <= 1
 0 <= z55 <= 1
 0 <= z56 <= 1
 0 <= z57 <= 1
 0 <= z58 <= 1
 0 <= z59 <= 1
 0 <= z60 <= 1
 0 <= z61 <= 1
 0 <= z62 <= 1
 0 <= z63 <= 1
 0 <= z64 <= 1
 0 <= z65 <= 1
 0 <= z66 <= 1
 0 <= z67 <= 1
 0 <= z68 <= 1
 0 <= z69 <= 1
 0 <= z70 <= 1
 0 <= z71 <= 1
 0 <= z72 <= 1
 0 <= z73 <= 1
 0 <= z74 <= 1
 0 <= z75 <= 1
 0 <= z76 <= 1
 0 <= z77 <= 1
 0 <= z78 <= 1
 0 <= z79 <= 1
 0 <= z80 <= 1
 0 <= z81 <= 1
 0 <= z82 <= 1
 0 <= z83 <= 1
 0 <= z84 <= 1
 0 <= z85 <= 1
 0 <= z86 <= 1
 0 <= z87 <= 1
 0 <= z88 <= 1
 0 <= z89 <= 1
 0 <= z90 <= 1
 0 <= z91 <= 1
 0 <= z92 <= 1
 0 <= z93 <= 1
 0 <= z94 <= 1
 0 <= z95 <= 1
 0 <= z96 <= 1
 0 <= z97 <= 1
 0 <= z98 <= 1
 0 <= z99 <= 1
 0 <= z100 <= 1
 0 <= z101 <= 1
 0 <= z102 <= 1
 0 <= z103 <= 1
 0 <= z104 <= 1
 0 <= z105 <= 1
 0 <= z106 <= 1
 0 <= z107 <= 1
 0 <= z108 <= 1
 0 <= z109 <= 1
 0 <= z110 <= 1
 0 <= z111 <= 1
 0 <= z112 <= 1
 0 <= z113 <= 1
 0 <= z114 <= 1
 0 <= z115 <= 1
 0 <= z116 <= 1
 0 <= z117 <= 1
 0 <= z118 <= 1
 0 <= z119 <= 1
 0 <= z120 <= 1
 0 <= z121 <= 1
 0 <= z122 <= 1
 0 <= z123 <= 1
 0 <= z124 <= 1
 0 <= z125 <= 1
 0 <= z126 <= 1
 0 <= z127 <= 1
 0 <= z128 <= 1
 0 <= z129 <= 1
 0 <= z130 <= 1
 0 <= z131 <= 1
 0 <= z132 <= 1
 0 <= z133 <= 1
 0 <= z134 <= 1
 0 <= z135 <= 1
 0 <= z136 <= 1
 0 <= z137 <= 1
 0 <= z138 <= 1
 0 <= z139 <= 1
 0 <= z140 <= 1
 0 <= z141 <= 1
Binaries
 z0  z1  z2  z3  z4  z5  z6  z7  z8  z9  z10  z11  z12  z13  z14  z15  z16 
 z17  z18  z19  z20  z21  z22  z23  z24  z25  z26  z27  z28  z29  z30  z31 
 z32  z33  z34  z35  z36  z37  z38  z39  z40  z41  z42  z43  z44  z45  z46 
 z47  z48  z49  z50  z51  z52  z53  z54  z55  z56  z57  z58  z59  z60  z61 
 z62  z63  z64  z65  z66  z67  z68  z69  z70  z71  z72  z73  z74  z75  z76 
 z77  z78  z79  z80  z81  z82  z83  z84  z85  z86  z87  z88  z89  z90  z91 
 z92  z93  z94  z95  z96  z97  z98  z99  z100  z101  z102  z103  z104  z105 
 z106  z107  z108  z109  z110  z111  z112  z113  z114  z115  z116  z117  z118 
 z119  z120  z121  z122  z123  z124  z125  z126  z127  z128  z129  z130  z131 
 z132  z133  z134  z135  z136  z137  z138  z139  z140  z141 
End
